CMD:
./solvers/bin/cadical --plain --no-reduce -t 1600 ./data/cnfs//oski15a10b07s/oski15a10b07s.14.cnf

c --- [ banner ] -------------------------------------------------------------
c 
c CaDiCaL SAT Solver
c Copyright (c) 2016-2024
c A. Biere, M. Fleury, N. Froleyks, K. Fazekas, F. Pollitt, T. Faller
c JKU Linz, University of Freiburg, TU Wien
c 
c Version 2.1.3 5296d3d2a9bf48c154ab2acb5e44625776d821bf
c g++ (Gentoo 12.3.1_p20230526 p2) 12.3.1 20230526 -Wall -Wextra -O3 -DNDEBUG
c Sat Aug 9 07:26:21 PDT 2025 Linux cedar2.int.cedar.computecanada.ca 5.14.0-362.24.2.el9_3.x86_64 x86_64
c 
c --- [ limit ] --------------------------------------------------------------
c 
c setting time limit to 1600 seconds real time (due to '-t 1600')
c 
c --- [ parsing input ] ------------------------------------------------------
c 
c reading DIMACS file from './data/cnfs//oski15a10b07s/oski15a10b07s.14.cnf'
c opening file to read './data/cnfs//oski15a10b07s/oski15a10b07s.14.cnf'
c found 'p cnf 821056 2389670' header
c parsed 2389670 clauses in 0.37 seconds process time
c 
c --- [ options ] ------------------------------------------------------------
c 
c   --compact=false                (different from default 'true')
c   --decompose=false              (different from default 'true')
c   --deduplicate=false            (different from default 'true')
c   --elim=false                   (different from default 'true')
c   --probe=false                  (different from default 'true')
c   --reduce=false                 (different from default 'true')
c   --subsume=false                (different from default 'true')
c   --ternary=false                (different from default 'true')
c   --transred=false               (different from default 'true')
c   --vivify=false                 (different from default 'true')
c 
c --- [ solving ] ------------------------------------------------------------
c 
c time measured in process time since initialization
c 
c  seconds   reductions  redundant   irredundant
c          MB    restarts       trail        variables
c           level   conflicts       glue           remaining
c 
c *  0.37 322  0 0   0    0    0  0% 0 1842741 541401 66%
c {  0.39 323  0 0   0    0    0  0% 0 1842741 541401 66%
c i  0.42 323 344 0   4  103   88 35% 2 1842741 541397 66%
c i  0.45 323 456 0   9  140  117 37% 2 1842741 541396 66%
c i  0.45 323 468 0   9  143  118 37% 2 1842741 541395 66%
c i  0.47 323 642 0   9  183  152 40% 2 1842741 541391 66%
c i  0.47 323 653 0   9  187  152 40% 2 1842741 541387 66%
c i  0.47 323 661 0   9  189  151 40% 2 1842741 541383 66%
c i  0.47 323 668 0   9  191  151 40% 2 1842741 541379 66%
c i  0.47 323 702 0   9  201  159 40% 2 1842741 541375 66%
c i  0.47 323 727 0   9  209  165 40% 2 1842741 541371 66%
c i  0.47 323 787 0   9  235  181 41% 2 1842741 541367 66%
c i  0.47 323 805 0   9  243  188 41% 2 1842741 541366 66%
c i  0.48 323 846 0   9  267  204 42% 2 1842741 541358 66%
c i  0.48 323 848 0   9  268  204 42% 2 1842741 541350 66%
c i  0.48 323 850 0   9  269  204 42% 2 1842741 541342 66%
c i  0.48 323 852 0   9  270  204 42% 2 1842741 541334 66%
c i  0.48 323 854 0   9  271  204 42% 2 1842741 541320 66%
c i  0.48 323 863 0   9  276  208 42% 2 1842741 541312 66%
c i  0.48 323 865 0   9  277  208 42% 2 1842741 541304 66%
c 
c  seconds    reductions  redundant   irredundant
c          MB     restarts       trail        variables
c            level   conflicts       glue           remaining
c 
c i  0.48 323 867 0   9  278  208 42% 2 1842741 541296 66%
c i  0.48 323 869 0   9  279  208 42% 2 1842741 541288 66%
c i  0.48 323 871 0   9  280  208 42% 2 1842741 541274 66%
c i  0.52 324 825 0  20  362  285 42% 2 1842741 541266 66%
c i  0.52 324 805 0  23  371  292 42% 2 1842741 541262 66%
c i  0.52 324 803 0  23  372  292 42% 2 1842741 541258 66%
c i  0.53 324 780 0  25  383  302 42% 2 1842741 541257 66%
c i  0.54 324 745 0  31  401  318 42% 2 1842741 541249 66%
c i  0.55 324 728 0  34  412  327 42% 2 1842741 541245 66%
c i  0.56 324 724 0  35  414  328 42% 2 1842741 541242 66%
c i  0.60 324 711 0  38  428  340 42% 2 1842741 541237 66%
c i  0.74 327 687 0  51  480  383 42% 2 1842741 540934 66%
c i  0.80 327 616 0  70  541  440 42% 2 1842741 540926 66%
c i  0.84 327 573 0  81  583  479 42% 2 1842741 540919 66%
c i  0.85 327 541 0  90  618  512 41% 2 1842741 540913 66%
c i  0.85 327 539 0  91  620  513 41% 2 1842741 540910 66%
c i  0.86 327 512 0  97  654  544 41% 2 1842741 540901 66%
c i  0.97 327 498 0 110  754  635 42% 2 1842741 540885 66%
c i  0.97 327 499 0 110  755  635 42% 2 1842741 540863 66%
c i  0.97 327 502 0 110  757  636 42% 2 1842741 540859 66%
c 
c  seconds    reductions  redundant   irredundant
c          MB     restarts       trail        variables
c            level   conflicts       glue           remaining
c 
c i  0.97 327 507 0 110  761  639 42% 2 1842741 540855 66%
c i  0.97 327 518 0 110  773  648 42% 2 1842741 540854 66%
c i  0.98 327 529 0 110  783  656 43% 2 1842741 540850 66%
c i  0.98 327 540 0 110  791  663 43% 2 1842741 540849 66%
... skipped 82361 lines ...
v -820548 -820549 -820550 -820551 820552 -820553 820554 820555 -820556 -820557
v -820558 -820559 820560 -820561 -820562 820563 820564 -820565 -820566 -820567
v -820568 820569 -820570 -820571 820572 820573 -820574 -820575 -820576 -820577
v 820578 -820579 -820580 820581 820582 -820583 -820584 820585 820586 -820587
v -820588 -820589 820590 820591 -820592 -820593 820594 820595 -820596 -820597
v -820598 820599 820600 -820601 -820602 -820603 -820604 820605 -820606 -820607
v 820608 820609 -820610 -820611 820612 820613 -820614 -820615 -820616 820617
v 820618 -820619 -820620 -820621 -820622 820623 -820624 -820625 820626 820627
v -820628 -820629 -820630 -820631 820632 -820633 -820634 820635 820636 -820637
v -820638 820639 820640 -820641 -820642 -820643 820644 820645 -820646 -820647
v 820648 820649 -820650 -820651 -820652 820653 820654 -820655 -820656 820657
v 820658 -820659 -820660 -820661 820662 820663 -820664 -820665 -820666 -820667
v 820668 -820669 -820670 820671 820672 -820673 -820674 -820675 -820676 820677
v -820678 -820679 820680 820681 -820682 -820683 -820684 -820685 820686 -820687
v -820688 820689 820690 -820691 -820692 -820693 -820694 -820695 820696 -820697
v 820698 820699 -820700 -820701 -820702 -820703 820704 -820705 -820706 820707
v 820708 -820709 -820710 -820711 -820712 820713 -820714 -820715 820716 820717
v -820718 -820719 -820720 -820721 820722 -820723 -820724 820725 820726 -820727
v -820728 -820729 -820730 820731 -820732 -820733 820734 820735 -820736 -820737
v -820738 -820739 820740 -820741 -820742 820743 820744 -820745 -820746 820747
v 820748 -820749 -820750 -820751 820752 820753 -820754 -820755 -820756 -820757
v 820758 -820759 -820760 820761 820762 -820763 -820764 -820765 -820766 820767
v -820768 -820769 820770 820771 -820772 -820773 820774 820775 -820776 -820777
v -820778 820779 820780 -820781 -820782 820783 820784 -820785 -820786 -820787
v 820788 820789 -820790 -820791 -820792 -820793 820794 -820795 -820796 820797
v 820798 -820799 -820800 820801 820802 -820803 -820804 -820805 820806 820807
v -820808 -820809 -820810 -820811 820812 -820813 -820814 820815 820816 -820817
v -820818 -820819 -820820 820821 -820822 -820823 820824 820825 -820826 -820827
v -820828 -820829 820830 -820831 -820832 820833 820834 -820835 -820836 -820837
v -820838 -820839 820840 -820841 820842 820843 -820844 -820845 -820846 -820847
v 820848 -820849 -820850 820851 820852 -820853 -820854 -820855 -820856 820857
v -820858 -820859 820860 820861 -820862 -820863 -820864 -820865 820866 -820867
v -820868 820869 820870 -820871 -820872 820873 820874 -820875 -820876 -820877
v 820878 820879 -820880 -820881 820882 820883 -820884 -820885 -820886 820887
v 820888 -820889 -820890 820891 820892 -820893 -820894 -820895 820896 820897
v -820898 -820899 -820900 -820901 820902 -820903 -820904 820905 820906 -820907
v -820908 820909 820910 -820911 -820912 -820913 820914 820915 -820916 -820917
v -820918 -820919 820920 -820921 -820922 820923 820924 -820925 -820926 -820927
v -820928 820929 -820930 -820931 820932 820933 -820934 -820935 820936 820937
v -820938 -820939 -820940 820941 820942 -820943 -820944 820945 820946 -820947
v -820948 -820949 820950 820951 -820952 -820953 -820954 -820955 820956 -820957
v -820958 820959 820960 -820961 -820962 -820963 -820964 820965 -820966 -820967
v 820968 820969 -820970 -820971 -820972 -820973 820974 -820975 -820976 820977
v 820978 -820979 -820980 -820981 -820982 -820983 820984 -820985 820986 820987
v -820988 -820989 -820990 -820991 820992 -820993 -820994 820995 820996 -820997
v -820998 -820999 -821000 821001 -821002 -821003 821004 821005 -821006 -821007
v -821008 -821009 821010 -821011 -821012 821013 821014 -821015 -821016 821017
v 821018 -821019 -821020 -821021 821022 821023 -821024 -821025 821026 821027
v -821028 -821029 -821030 821031 821032 -821033 -821034 -821035 -821036 821037
v -821038 -821039 -821040 821041 -821042 -821043 -821044 -821045 821046
v -821047 821048 -821049 -821050 821051 821052 -821053 -821054 821055 -821056
v 0
c 
c --- [ run-time profiling ] -------------------------------------------------
c 
c process time taken by individual solving procedures
c (percentage relative to process time for solving)
c 
c         5.42   99.99% search
c         3.96   73.15% unstable
c         1.43   26.49% stable
c         0.37    6.81% parse
c         0.02    0.34% lucky
c         0.00    0.00% simplify
c   =================================
c         5.42   92.97% solve
c 
c last line shows process time for solving
c (percentage relative to total process time)
c 
c --- [ statistics ] ---------------------------------------------------------
c 
c chronological:              4569        51.05 %  of conflicts
c conflicts:                  8950      1652.64    per second
c decisions:                155307     28677.85    per second
c fixed:                    285214        34.74 %  of all variables
c learned:                    8523        95.23 %  per conflict
c learned_lits:             146294       100.00 %  learned literals
c minimized:                     0         0.00 %  learned literals
c shrunken:                  19180        13.11 %  learned literals
c minishrunken:              25701        17.57 %  learned literals
c otfs:                        114         1.27 %  of conflict
c propagations:           52116293         9.62 M  per second
c rephased:                      3      2983.33    interval
c restarts:                    640        13.98    interval
c stabilizing:                   2        44.08 %  of conflicts
c subsumed:                    455         0.02 %  of all clauses
c strengthened:                109         0.01 %  of all clauses
c 
c seconds are measured in process time for solving
c 
c --- [ resources ] ----------------------------------------------------------
c 
c total process time since initialization:         5.83    seconds
c total real time since initialization:            5.87    seconds
c maximum resident set size of process:          328.73    MB
c 
c --- [ shutting down ] ------------------------------------------------------
c 
c exit 10
